c turning on binary mode checking
c parsing input formula with 259840 variables and 1039934 clauses
c finished parsing, read 23529402 bytes from proof file
c detected empty clause; start verification via backward checking
c 22089 of 1039934 clauses in core                            
c 28615 of 605372 lemmas in core using 235105 resolution steps
c 0 RAT lemmas in core; 2111 redundant literals in core lemmas
s VERIFIED
c verification time: 3.324 seconds
